00:00.0 clingo version 5.5.1
00:00.0 Reading from ...ols/../encodings/CTW_nat_optimal_V1.lp ...
29:59.638 UNKNOWN
29:59.785 
29:59.792 TIME LIMIT   : 1
29:59.799 Models       : 0+
29:59.799 Calls        : 1
29:59.805 Time         : 1800.044s (Solving: 0.00s 1st Model: 0.00s Unsat: 0.00s)
29:59.806 CPU Time     : 115.337s
